 vasp.5.4.4.18Apr17-6-g9f103f2a35 (build Mar 06 2019 16:23:31) complex

 executed on             LinuxIFC date 2019.12.15  13:37:42

 INCAR:
 POTCAR:    PAW_PBE Cd 06Sep2000
 POTCAR:    PAW_PBE H 15Jun2001
 POTCAR:    PAW_PBE C 08Apr2002
 POTCAR:    PAW_PBE N 08Apr2002

 POTCAR:    PAW_PBE Cd 06Sep2000
   VRHFIN =Cd : s2 d10

   TITEL  = PAW_PBE Cd 06Sep2000
   POMASS =  112.411; ZVAL   =   12.000    mass and valenz
   ENMAX  =  274.336; ENMIN  =  205.752 eV

 POTCAR:    PAW_PBE H 15Jun2001
   VRHFIN =H: ultrasoft test

   TITEL  = PAW_PBE H 15Jun2001
   POMASS =    1.000; ZVAL   =    1.000    mass and valenz
   ENMAX  =  250.000; ENMIN  =  200.000 eV

 POTCAR:    PAW_PBE C 08Apr2002
   VRHFIN =C: s2p2

   TITEL  = PAW_PBE C 08Apr2002
   POMASS =   12.011; ZVAL   =    4.000    mass and valenz
   ENMAX  =  400.000; ENMIN  =  300.000 eV

 POTCAR:    PAW_PBE N 08Apr2002
   VRHFIN =N: s2p3

   TITEL  = PAW_PBE N 08Apr2002
   POMASS =   14.001; ZVAL   =    5.000    mass and valenz
   ENMAX  =  400.000; ENMIN  =  300.000 eV

  PAW_PBE Cd 06Sep2000                  :
  PAW_PBE H 15Jun2001                   :
  PAW_PBE C 08Apr2002                   :
  PAW_PBE N 08Apr2002                   :

 POSCAR: Cd  H  C  N
  positions in cartesian coordinates
 exchange correlation table for  LEXCH =        8
   RHO(1)=    0.500       N(1)  =     2000
   RHO(2)=  100.500       N(2)  =     4000

 VTST: version 3.2, (02/03/18)

 CHAIN: initializing optimizer

 OPT: Using VASP Dynamics algorithm
 CHAIN: Read ICHAIN            0

 POSCAR: Cd  H  C  N
  positions in cartesian coordinates

 ion  position               nearest neighbor table
   1  0.207  0.874  0.459-  49 2.28  55 2.32  48 2.43  56 2.47  43 2.48  45 2.57  60 2.61   2 3.76

   2  0.793  0.126  0.541-  50 2.28  56 2.32  47 2.43  55 2.47  44 2.48  46 2.57  59 2.61   1 3.76

   3  0.705  0.960  0.870-  19 1.09
   4  0.295  0.040  0.130-  20 1.09
   5  0.860  0.222  0.120-  23 1.09
   6  0.140  0.778  0.880-  24 1.09
   7  0.983  0.413  0.898-  25 1.09
   8  0.017  0.587  0.102-  26 1.09
   9  0.497  0.780  0.652-  31 1.09
  10  0.503  0.220  0.348-  32 1.09
  11  0.250  0.268  0.766-  33 1.09
  12  0.750  0.732  0.234-  34 1.09
  13  0.613  0.561  0.817-  37 1.09
  14  0.387  0.439  0.183-  38 1.09
  15  0.710  0.992  0.107-  39 1.09
  16  0.290  0.008  0.893-  40 1.09
  17  0.486  0.296  0.875-  41 1.09
  18  0.514  0.704  0.125-  42 1.09
  19  0.769  0.057  0.881-   3 1.09  47 1.34  39 1.39
  20  0.231  0.943  0.119-   4 1.09  48 1.34  40 1.39
  21  0.973  0.395  0.628-  46 1.34  29 1.42  35 1.49
  22  0.027  0.605  0.372-  45 1.34  30 1.42  36 1.49
  23  0.853  0.203  0.020-   5 1.09  39 1.39  25 1.39
  24  0.147  0.797  0.980-   6 1.09  40 1.39  26 1.39
  25  0.926  0.309  0.895-   7 1.09  23 1.39  35 1.40
  26  0.074  0.691  0.105-   8 1.09  24 1.39  36 1.40
  27  0.244  0.510  0.657-  43 1.36  33 1.40  29 1.49
  28  0.756  0.490  0.343-  44 1.36  34 1.40  30 1.49
  29  0.109  0.500  0.584-  45 1.34  21 1.42  27 1.49
  30  0.891  0.500  0.416-  46 1.34  22 1.42  28 1.49
  31  0.443  0.665  0.681-   9 1.09  43 1.34  37 1.40
  32  0.557  0.335  0.319-  10 1.09  44 1.34  38 1.40
  33  0.306  0.381  0.746-  11 1.09  41 1.39  27 1.40
  34  0.694  0.619  0.254-  12 1.09  42 1.39  28 1.40
  35  0.917  0.282  0.766-  47 1.35  25 1.40  21 1.49
  36  0.083  0.718  0.234-  48 1.35  26 1.40  22 1.49
  37  0.508  0.542  0.774-  13 1.09  41 1.39  31 1.40
  38  0.492  0.458  0.226-  14 1.09  42 1.39  32 1.40
  39  0.773  0.075  0.013-  15 1.09  23 1.39  19 1.39
  40  0.227  0.925  0.987-  16 1.09  24 1.39  20 1.39
  41  0.438  0.397  0.806-  17 1.09  37 1.39  33 1.39
  42  0.562  0.603  0.194-  18 1.09  38 1.39  34 1.39
  43  0.314  0.651  0.625-  31 1.34  27 1.36   1 2.48
  44  0.686  0.349  0.375-  32 1.34  28 1.36   2 2.48
  45  0.127  0.601  0.459-  29 1.34  22 1.34   1 2.57
  46  0.873  0.399  0.541-  30 1.34  21 1.34   2 2.57
  47  0.839  0.158  0.761-  19 1.34  35 1.35   2 2.43
  48  0.161  0.842  0.239-  20 1.34  36 1.35   1 2.43
  49  0.474  0.944  0.316-  51 1.19   1 2.28
  50  0.526  0.056  0.684-  52 1.19   2 2.28
  51  0.601  0.948  0.356-  59 1.18  49 1.19
  52  0.399  0.052  0.644-  60 1.18  50 1.19
  53  0.858  0.680  0.834-  57 1.17
  54  0.142  0.320  0.166-  58 1.17
  55  0.932  0.864  0.615-  57 1.20   1 2.32   2 2.47
  56  0.068  0.136  0.385-  58 1.20   2 2.32   1 2.47
  57  0.895  0.771  0.726-  53 1.17  55 1.20
  58  0.105  0.229  0.274-  54 1.17  56 1.20
  59  0.732  0.953  0.386-  51 1.18   2 2.61
  60  0.268  0.047  0.614-  52 1.18   1 2.61

IMPORTANT INFORMATION: All symmetrisations will be switched off!
NOSYMM: (Re-)initialisation of all symmetry stuff for point group C_1.

 KPOINTS: KPOINTS created by Atomic Simulation Env

Automatic generation of k-mesh.
Space group operators:
 irot       det(A)        alpha          n_x          n_y          n_z        tau_x        tau_y        tau_z
    1     1.000000     0.000000     1.000000     0.000000     0.000000     0.000000     0.000000     0.000000

 Subroutine IBZKPT returns following result:

 Found      4 irreducible k-points:

 Following reciprocal coordinates:
            Coordinates               Weight
  0.250000  0.250000  0.250000      2.000000
 -0.250000  0.250000  0.250000      2.000000
  0.250000 -0.250000  0.250000      2.000000
 -0.250000 -0.250000  0.250000      2.000000

 Following cartesian coordinates:
            Coordinates               Weight
  0.025386  0.021393  0.024826      2.000000
 -0.039856  0.024859  0.025168      2.000000
  0.025903 -0.037155  0.024248      2.000000
 -0.039338 -0.033689  0.024590      2.000000

 SYSTEM =  unknown system
 POSCAR =  Cd  H  C  N

 Startparameter for this run:
   NWRITE =      2    write-flag & timer
   PREC   = accura    normal or accurate (medium, high low for compatibility)
   ISTART =      1    job   : 0-new  1-cont  2-samecut
   ICHARG =      0    charge: 1-file 2-atom 10-const
   ISPIN  =      1    spin polarized calculation?
   LNONCOLLINEAR =      F non collinear calculations
   LSORBIT =      F    spin-orbit coupling
   INIWAV =      1    electr: 0-lowe 1-rand  2-diag
   LASPH  =      F    aspherical Exc in radial PAW
   METAGGA=      F    non-selfconsistent MetaGGA calc.

 Electronic Relaxation 1
   ENCUT  =  520.0 eV  38.22 Ry    6.18 a.u.  14.84 16.41 18.79*2*pi/ulx,y,z
   ENINI  =  520.0     initial cutoff
   ENAUG  =  644.9 eV  augmentation charge cutoff
   NELM   =    150;   NELMIN=  2; NELMDL=  0     # of ELM steps
   EDIFF  = 0.1E-05   stopping-criterion for ELM
   LREAL  =      F    real-space projection
   NLSPLINE    = F    spline interpolate recip. space projectors
   LCOMPAT=      F    compatible to vasp.4.4
   GGA_COMPAT  = T    GGA compatible to vasp.4.4-vasp.4.6
   LMAXPAW     = -100 max onsite density
   LMAXMIX     =    2 max onsite mixed and CHGCAR
   VOSKOWN=      0    Vosko Wilk Nusair interpolation
   ROPT   =    0.00000   0.00000   0.00000   0.00000
 Ionic relaxation
   EDIFFG = 0.1E-04   stopping-criterion for IOM
   NSW    =      0    number of steps for IOM
   NBLOCK =      1;   KBLOCK =      1    inner block; outer block
   IBRION =     -1    ionic relax: 0-MD 1-quasi-New 2-CG
   NFREE  =      0    steps in history (QN), initial steepest desc. (CG)
   ISIF   =      2    stress and relaxation
   IWAVPR =     10    prediction:  0-non 1-charg 2-wave 3-comb
   ISYM   =      0    0-nonsym 1-usesym 2-fastsym
   LCORR  =      T    Harris-Foulkes like correction to forces

   POTIM  = 0.5000    time-step for ionic-motion
   TEIN   =    0.0    initial temperature
   TEBEG  =    0.0;   TEEND  =   0.0 temperature during run
   SMASS  =  -3.00    Nose mass-parameter (am)
   estimated Nose-frequenzy (Omega)   =  0.10E-29 period in steps =****** mass=  -0.146E-26a.u.
   SCALEE = 1.0000    scale energy and forces
   NPACO  =    256;   APACO  = 16.0  distance and # of slots for P.C.
   PSTRESS=    0.0 pullay stress

  Mass of Ions in am
   POMASS = 112.41  1.00 12.01 14.00
  Ionic Valenz
   ZVAL   =  12.00  1.00  4.00  5.00
  Atomic Wigner-Seitz radii
  virtual crystal weights
   VCA    =   1.00  1.00  1.00  1.00
   NELECT =     226.0000    total number of electrons
   NUPDOWN=      -1.0000    fix difference up-down

 DOS related values:
   EMIN   =  10.00;   EMAX   =-10.00  energy-range for DOS
   EFERMI =   0.00
   ISMEAR =     0;   SIGMA  =   0.01  broadening in eV -4-tet -1-fermi 0-gaus

 Electronic relaxation 2 (details)
   IALGO  =     68    algorithm
   LDIAG  =      T    sub-space diagonalisation (order eigenvalues)
   LSUBROT=      F    optimize rotation matrix (better conditioning)
   TURBO    =      0    0=normal 1=particle mesh
   IRESTART =      0    0=no restart 2=restart with 2 vectors
   NREBOOT  =      0    no. of reboots
   NMIN     =      0    reboot dimension
   EREF     =   0.00    reference energy to select bands
   IMIX   =      4    mixing-type and parameters
     AMIX     =   0.40;   BMIX     =  1.00
     AMIX_MAG =   1.60;   BMIX_MAG =  1.00
     AMIN     =   0.10
     WC   =   100.;   INIMIX=   1;  MIXPRE=   1;  MAXMIX= -45

 Intra band minimization:
   WEIMIN = 0.0000     energy-eigenvalue tresh-hold
   EBREAK =  0.17E-08  absolut break condition
   DEPER  =   0.30     relativ break condition

   TIME   =   0.40     timestep for ELM

  volume/ion in A,a.u.               =      11.03        74.43
  Fermi-wavevector in a.u.,A,eV,Ry     =   1.144284  2.162384 17.815286  1.309387
  Thomas-Fermi vector in A             =   2.280977

 Write flags
   LWAVE        =      T    write WAVECAR
   LDOWNSAMPLE  =      F    k-point downsampling of WAVECAR
   LCHARG       =      T    write CHGCAR
   LVTOT        =      F    write LOCPOT, total local potential
   LVHAR        =      F    write LOCPOT, Hartree potential only
   LELF         =      F    write electronic localiz. function (ELF)
   LORBIT       =     11    0 simple, 1 ext, 2 COOP (PROOUT), +10 PAW based schemes

 Dipole corrections
   LMONO  =      F    monopole corrections only (constant potential shift)
   LDIPOL =      F    correct potential (dipole corrections)
   IDIPOL =      0    1-x, 2-y, 3-z, 4-all directions
   EPSILON=  1.0000000 bulk dielectric constant

 Exchange correlation treatment:
   GGA     =    PE    GGA type
   VOSKOWN=      0    Vosko Wilk Nusair interpolation
   LHFCALC =     F    Hartree Fock is set to
   LHFONE  =     F    Hartree Fock one center treatment
   AEXX    =    0.0000 exact exchange contribution

 Linear response parameters
   LEPSILON=     F    determine dielectric tensor
   LRPA    =     F    only Hartree local field effects (RPA)
   LNABLA  =     F    use nabla operator in PAW spheres
   LVEL    =     F    velocity operator in full k-point grid
   LINTERFAST=   F  fast interpolation
   KINTER  =     0    interpolate to denser k-point grid
   CSHIFT  =0.1000    complex shift for real part using Kramers Kronig
   OMEGAMAX=  -1.0    maximum frequency
   DEG_THRESHOLD= 0.2000000E-02 threshold for treating states as degnerate
   RTIME   =   -0.100 relaxation time in fs
  (WPLASMAI=    0.000 imaginary part of plasma frequency in eV, 0.658/RTIME)
[...]
     0.464544354  8.521953746  2.251697048    -0.001035446  0.117094968  0.001156064
     0.047623000 -0.099363322 10.106926504    -0.027905092 -0.024592486  0.098831760

  length of vectors
     7.981154475  8.826643569 10.107527115     0.130668783  0.117105253  0.105599248

 FORCES acting on ions
    electron-ion (+dipol)            ewald-force                    non-local-force                 convergence-correction
   -.114E+03 -.361E+02 0.635E+01   0.114E+03 0.362E+02 -.713E+01   0.128E+00 -.140E-01 0.796E+00   -.494E-03 -.210E-03 0.210E-04
   0.114E+03 0.361E+02 -.636E+01   -.114E+03 -.362E+02 0.714E+01   -.127E+00 0.136E-01 -.795E+00   -.709E-03 -.705E-03 0.964E-04
   0.421E+02 0.491E+02 -.377E+01   -.450E+02 -.536E+02 0.119E+01   0.299E+01 0.456E+01 0.258E+01   -.342E-04 0.719E-05 -.342E-04
   -.421E+02 -.491E+02 0.377E+01   0.450E+02 0.536E+02 -.119E+01   -.299E+01 -.456E+01 -.258E+01   0.505E-05 0.207E-04 -.248E-04
   -.146E+01 -.125E+02 -.319E+02   0.185E+01 0.134E+02 0.378E+02   -.395E+00 -.819E+00 -.589E+01   0.533E-05 0.350E-05 0.122E-04
   0.146E+01 0.125E+02 0.319E+02   -.185E+01 -.134E+02 -.378E+02   0.395E+00 0.819E+00 0.589E+01   0.134E-04 -.866E-05 0.158E-04
   -.154E+02 -.375E+02 -.415E+02   0.180E+02 0.424E+02 0.437E+02   -.263E+01 -.494E+01 -.223E+01   0.169E-04 -.136E-04 0.231E-04
   0.154E+02 0.375E+02 0.415E+02   -.180E+02 -.424E+02 -.437E+02   0.263E+01 0.494E+01 0.223E+01   0.872E-05 -.169E-04 -.802E-06
   -.261E+02 -.268E+02 -.232E+02   0.287E+02 0.322E+02 0.237E+02   -.263E+01 -.539E+01 -.473E+00   0.344E-04 0.305E-04 0.344E-04
   0.261E+02 0.268E+02 0.232E+02   -.287E+02 -.322E+02 -.237E+02   0.263E+01 0.539E+01 0.474E+00   0.212E-04 -.155E-05 -.798E-05
   0.154E+02 0.459E+02 -.159E+02   -.180E+02 -.512E+02 0.150E+02   0.257E+01 0.531E+01 0.906E+00   0.242E-04 -.667E-05 0.277E-04
   -.155E+02 -.459E+02 0.159E+02   0.180E+02 0.512E+02 -.150E+02   -.257E+01 -.531E+01 -.906E+00   0.140E-04 0.141E-04 -.133E-05
   -.218E+02 -.507E+01 -.508E+02   0.262E+02 0.599E+01 0.547E+02   -.443E+01 -.925E+00 -.386E+01   -.243E-04 0.165E-05 0.915E-07
   0.218E+02 0.507E+01 0.508E+02   -.262E+02 -.599E+01 -.547E+02   0.443E+01 0.925E+00 0.386E+01   -.135E-04 -.496E-05 -.257E-04
   0.224E+02 0.281E+02 -.948E+01   -.253E+02 -.320E+02 0.129E+02   0.288E+01 0.389E+01 -.345E+01   0.397E-05 -.462E-05 0.330E-05
   -.224E+02 -.281E+02 0.949E+01   0.253E+02 0.320E+02 -.129E+02   -.288E+01 -.389E+01 0.345E+01   0.512E-04 0.414E-05 -.696E-05
   -.346E+01 0.375E+02 -.462E+02   0.521E+01 -.422E+02 0.494E+02   -.177E+01 0.469E+01 -.315E+01   -.108E-04 -.159E-04 -.945E-06
   0.346E+01 -.375E+02 0.462E+02   -.521E+01 0.422E+02 -.494E+02   0.177E+01 -.469E+01 0.315E+01   0.201E-05 0.594E-05 -.208E-04
   0.106E+03 0.124E+03 -.630E+02   -.108E+03 -.128E+03 0.649E+02   0.272E+01 0.412E+01 -.188E+01   -.117E-03 -.819E-04 -.434E-04
   -.106E+03 -.124E+03 0.630E+02   0.108E+03 0.128E+03 -.649E+02   -.272E+01 -.412E+01 0.188E+01   0.315E-04 0.426E-04 -.865E-04
   -.184E+02 0.180E+02 -.105E+03   0.207E+02 -.190E+02 0.109E+03   -.228E+01 0.945E+00 -.361E+01   0.197E-04 0.592E-04 0.241E-04
   0.184E+02 -.180E+02 0.105E+03   -.207E+02 0.190E+02 -.109E+03   0.228E+01 -.945E+00 0.361E+01   -.491E-04 -.142E-04 -.456E-04
   0.122E+02 -.296E+02 -.108E+03   -.121E+02 0.297E+02 0.110E+03   -.151E+00 -.888E-01 -.227E+01   -.640E-05 0.133E-04 0.928E-04
   -.122E+02 0.296E+02 0.108E+03   0.121E+02 -.297E+02 -.110E+03   0.151E+00 0.887E-01 0.227E+01   0.373E-04 -.258E-04 -.146E-04
   -.215E+02 -.756E+02 -.120E+03   0.227E+02 0.775E+02 0.122E+03   -.121E+01 -.200E+01 -.180E+01   0.309E-04 0.348E-04 0.965E-04
   0.215E+02 0.756E+02 0.120E+03   -.227E+02 -.775E+02 -.122E+03   0.121E+01 0.200E+01 0.180E+01   -.132E-05 -.465E-04 -.464E-04
   0.128E+02 0.724E+02 -.497E+02   -.137E+02 -.757E+02 0.501E+02   0.890E+00 0.338E+01 -.366E+00   -.306E-04 -.576E-04 0.641E-04
   -.128E+02 -.724E+02 0.497E+02   0.137E+02 0.757E+02 -.501E+02   -.890E+00 -.338E+01 0.366E+00   0.674E-04 0.346E-04 -.463E-04
   -.246E+02 0.641E+02 -.776E+02   0.244E+02 -.664E+02 0.811E+02   0.235E+00 0.232E+01 -.352E+01   -.313E-04 -.464E-05 0.197E-04
   0.246E+02 -.641E+02 0.776E+02   -.244E+02 0.664E+02 -.811E+02   -.235E+00 -.232E+01 0.352E+01   0.530E-04 0.659E-04 -.450E-04
   -.844E+02 -.570E+02 -.109E+03   0.883E+02 0.588E+02 0.112E+03   -.388E+01 -.180E+01 -.291E+01   0.489E-04 0.489E-04 0.110E-03
   0.844E+02 0.570E+02 0.109E+03   -.883E+02 -.588E+02 -.112E+03   0.387E+01 0.180E+01 0.291E+01   0.608E-05 -.511E-04 -.604E-04
   0.232E+02 0.109E+03 -.750E+02   -.236E+02 -.111E+03 0.753E+02   0.414E+00 0.236E+01 -.237E+00   0.963E-05 -.691E-04 0.765E-04
   -.232E+02 -.109E+03 0.750E+02   0.236E+02 0.111E+03 -.752E+02   -.414E+00 -.236E+01 0.237E+00   0.706E-04 0.504E-04 -.442E-04
   -.217E+02 -.351E+02 -.911E+02   0.231E+02 0.374E+02 0.935E+02   -.150E+01 -.232E+01 -.237E+01   -.144E-04 0.327E-04 0.361E-04
   0.217E+02 0.351E+02 0.911E+02   -.231E+02 -.374E+02 -.935E+02   0.150E+01 0.232E+01 0.238E+01   -.431E-04 -.305E-04 -.654E-04
   -.586E+02 -.445E+01 -.151E+03   0.605E+02 0.466E+01 0.153E+03   -.197E+01 -.217E+00 -.183E+01   -.226E-04 0.121E-04 0.718E-04
   0.586E+02 0.445E+01 0.151E+03   -.605E+02 -.467E+01 -.153E+03   0.197E+01 0.217E+00 0.183E+01   -.213E-04 -.181E-04 -.985E-04
   0.723E+02 0.667E+02 -.693E+02   -.731E+02 -.681E+02 0.708E+02   0.822E+00 0.144E+01 -.150E+01   -.524E-04 -.527E-04 0.278E-04
   -.723E+02 -.667E+02 0.693E+02   0.731E+02 0.681E+02 -.708E+02   -.822E+00 -.144E+01 0.150E+01   0.793E-04 0.135E-04 -.391E-04
   -.122E+02 0.856E+02 -.140E+03   0.129E+02 -.870E+02 0.141E+03   -.810E+00 0.143E+01 -.124E+01   -.291E-04 -.659E-04 0.583E-04
   0.122E+02 -.856E+02 0.140E+03   -.129E+02 0.870E+02 -.141E+03   0.810E+00 -.143E+01 0.124E+01   0.210E-04 0.252E-04 -.883E-04
   -.279E+02 -.500E+02 -.408E+02   0.202E+02 0.716E+02 0.260E+02   0.765E+01 -.216E+02 0.148E+02   -.335E-05 -.157E-04 0.128E-03
   0.279E+02 0.500E+02 0.408E+02   -.202E+02 -.716E+02 -.260E+02   -.765E+01 0.216E+02 -.148E+02   0.111E-04 -.717E-04 -.605E-04
   -.117E+03 -.104E+02 0.369E+02   0.141E+03 0.286E+02 -.358E+02   -.236E+02 -.183E+02 -.111E+01   -.870E-04 -.331E-04 -.225E-04
   0.117E+03 0.104E+02 -.369E+02   -.141E+03 -.287E+02 0.358E+02   0.236E+02 0.183E+02 0.111E+01   0.173E-04 0.557E-04 -.415E-05
   0.435E+02 0.563E+02 -.257E+02   -.453E+02 -.602E+02 -.128E+01   0.183E+01 0.390E+01 0.270E+02   -.155E-03 -.108E-03 -.352E-04
   -.435E+02 -.563E+02 0.257E+02   0.453E+02 0.602E+02 0.127E+01   -.183E+01 -.390E+01 -.270E+02   -.370E-04 0.259E-04 -.117E-03
   0.383E+02 -.453E+02 0.217E+03   -.685E+02 0.459E+02 -.244E+03   0.303E+02 -.539E+00 0.272E+02   0.248E-03 0.471E-04 0.189E-04
   -.382E+02 0.453E+02 -.217E+03   0.685E+02 -.459E+02 0.244E+03   -.303E+02 0.539E+00 -.272E+02   0.214E-03 -.107E-03 0.251E-03
   -.221E+02 -.341E+01 0.671E+02   0.202E+02 0.331E+01 -.654E+02   0.184E+01 0.106E+00 -.169E+01   0.507E-03 0.324E-04 0.268E-03
   0.220E+02 0.340E+01 -.671E+02   -.202E+02 -.330E+01 0.655E+02   -.185E+01 -.106E+00 0.169E+01   0.137E-02 -.306E-04 0.948E-03
   0.130E+03 0.167E+03 -.243E+03   -.142E+03 -.198E+03 0.275E+03   0.127E+02 0.303E+02 -.314E+02   0.500E-04 0.259E-03 -.212E-03
   -.130E+03 -.167E+03 0.243E+03   0.142E+03 0.198E+03 -.275E+03   -.127E+02 -.303E+02 0.314E+02   0.515E-04 0.125E-03 -.146E-03
   0.473E+02 -.370E+02 0.287E+02   -.393E+02 0.635E+02 -.563E+02   -.802E+01 -.265E+02 0.275E+02   -.200E-03 0.556E-04 -.927E-04
   -.473E+02 0.370E+02 -.287E+02   0.393E+02 -.635E+02 0.562E+02   0.802E+01 0.265E+02 -.275E+02   -.660E-04 0.724E-04 -.165E-03
   0.809E+02 0.504E+02 -.109E+03   -.803E+02 -.498E+02 0.109E+03   -.596E+00 -.624E+00 0.376E+00   0.157E-03 0.713E-03 -.691E-03
   -.809E+02 -.504E+02 0.109E+03   0.803E+02 0.497E+02 -.109E+03   0.600E+00 0.633E+00 -.385E+00   0.111E-03 0.326E-03 -.367E-03
   -.155E+03 0.277E+02 0.612E+00   0.194E+03 -.278E+02 0.208E+02   -.387E+02 0.152E+00 -.214E+02   0.845E-04 -.268E-04 0.128E-03
   0.155E+03 -.277E+02 -.590E+00   -.194E+03 0.278E+02 -.209E+02   0.387E+02 -.151E+00 0.214E+02   0.477E-03 -.613E-04 0.338E-03
   0.172E-03 -.310E-02 0.257E-02   -.142E-12 -.853E-13 0.355E-14   -.174E-02 0.283E-02 -.287E-02   0.172E-02 0.271E-03 0.231E-03

 POSITION                                       TOTAL-FORCE (eV/Angst)
      2.01793      7.41060      7.05534         0.004491     -0.017598     -0.005133
      6.17192      1.05833      7.48258        -0.004806      0.017741      0.004730
      5.90104      8.13112     12.49268        -0.001083      0.008951     -0.003147
      2.28880      0.33780      2.04531         0.001497     -0.008152      0.003133
      6.71169      1.92197      3.59219        -0.005190     -0.004282      0.011163
      1.47823      6.54696     10.94578         0.004948      0.004148     -0.011525
      7.78468      3.47225     12.15206        -0.013376      0.012937      0.000142
      0.40520      4.99668      2.38590         0.013367     -0.013005     -0.000206
      4.21240      6.60321      9.43112        -0.002959     -0.002580      0.016438
      3.97747      1.86578      5.10678         0.003275      0.003105     -0.016269
      2.08375      2.22101      8.89427         0.012997      0.011755      0.000958
      6.10615      6.24798      5.64375        -0.013102     -0.011757     -0.000952
      5.00445      4.73002     10.85552         0.022687     -0.004418      0.010198
      3.18544      3.73902      3.68243        -0.022526      0.004464     -0.010062
      5.92036      8.47912      4.86495         0.016176      0.003743     -0.003729
      2.26950     -0.01018      9.67303        -0.016020     -0.003660      0.003403
      3.91114      2.46018     10.57297        -0.000315     -0.000321     -0.002548
      4.27876      6.00884      3.96502         0.000065      0.000912      0.002075
      5.97251      0.43588     10.70527        -0.003594     -0.010461     -0.006002
      2.21733      8.03309      3.83269         0.003240      0.009385      0.005571
      7.68717      3.35119      9.36302         0.002492      0.000017      0.010174
      0.50270      5.11776      5.17494        -0.001912     -0.000323     -0.009446
      6.64826      1.77071      2.51642        -0.003503      0.004933      0.002441
      1.54161      6.69823     12.02154         0.003547     -0.005447     -0.002384
      7.29506      2.58587     11.75903         0.000816     -0.013756      0.008240
      0.89483      5.88305      2.77893        -0.000871      0.014040     -0.008195
      2.14540      4.29541      8.32043        -0.001898      0.007784      0.025176
      6.04447      4.17357      6.21755         0.001761     -0.007600     -0.025146
      1.09889      4.21069      7.26508        -0.007613      0.004713      0.013388
      7.09100      4.25825      7.27291         0.006806     -0.004116     -0.014628
      3.74545      5.62202      9.35191         0.001025      0.002217     -0.016012
      4.44443      2.84698      5.18604        -0.001464     -0.002214      0.015677
      2.55848      3.18343      9.06027        -0.001442      0.001134      0.000356
      5.63138      5.28558      5.47773         0.001956     -0.001620     -0.000147
      7.20856      2.37188     10.37822         0.001305      0.002997      0.006211
      0.98132      6.09705      4.15973        -0.000999     -0.002122     -0.005453
      4.19231      4.56447     10.14648        -0.005016      0.004669     -0.003004
      3.99757      3.90456      4.39149         0.004980     -0.005074      0.002910
      5.97205      0.67629      1.98333        -0.008757      0.008677      0.003793
      2.21780      7.79264     12.55462         0.009068     -0.007781     -0.002836
      3.58581      3.32103      9.99077        -0.009512     -0.003504     -0.004570
      4.60407      5.14800      4.54720         0.009839      0.002776      0.005417
      2.74630      5.50145      8.46434         0.015670     -0.004087     -0.002829
      5.44357      2.96753      6.07362        -0.015607      0.004321      0.002708
      1.27709      5.08087      6.26517         0.000501      0.001016      0.012952
      6.91279      3.38807      8.27280        -0.000602     -0.000986     -0.012879
      6.54954      1.30836      9.87165         0.005540     -0.010169     -0.012096
      1.64033      7.16061      4.66632        -0.006343      0.008899      0.011365
      4.09371      8.03652      6.35595         0.003376     -0.003437      0.005497
      4.09615      0.43247      8.18200        -0.010486      0.003128     -0.010216
      5.07075      8.07403      7.04269        -0.008796      0.005635      0.000135
      3.11902      0.39495      7.49519         0.025178     -0.004877      0.010154
      6.94095      5.75200     11.82724         0.000009      0.008933     -0.013287
      1.24893      2.71693      2.71075         0.003817      0.000357      0.003652
      7.58766      7.34807     10.19525         0.012423      0.000414     -0.010605
      0.60219      1.12086      4.34272        -0.009375      0.006916      0.003028
      7.26687      6.54116     11.02163        -0.012507     -0.011723      0.018951
      0.92303      1.92787      3.51623         0.005580     -0.005124     -0.001583
      6.08417      8.11661      7.64240         0.017693      0.011726     -0.001981
      2.10571      0.35236      6.89553        -0.026449     -0.012244     -0.003166
    total drift:                                0.000157      0.000003     -0.000070

  FREE ENERGIE OF THE ION-ELECTRON SYSTEM (eV)
  free  energy   TOTEN  =      -423.69297832 eV

  energy  without entropy=     -423.69297832  energy(sigma->0) =     -423.69297832

 stress matrix after NEB project (eV)
     -0.13334      0.03952      0.04658
      0.03952     -0.15036      0.01304
      0.04658      0.01304     -0.03794
  FORCES: max atom, RMS     0.029317    0.015584
  FORCE total and by dimension    0.120710    0.026449
  Stress total and by dimension    0.222777    0.150357
 writing wavefunctions

 total charge

# of ion       s       p       d       tot
    1        0.304   0.240   9.630  10.175
    2        0.304   0.240   9.630  10.175
    3        0.646   0.048   0.000   0.694
    4        0.646   0.048   0.000   0.694
    5        0.642   0.048   0.000   0.690
    6        0.642   0.048   0.000   0.690
    7        0.640   0.049   0.000   0.689
    8        0.640   0.049   0.000   0.689
    9        0.646   0.048   0.000   0.694
   10        0.646   0.048   0.000   0.694
   11        0.646   0.049   0.000   0.694
   12        0.646   0.049   0.000   0.694
   13        0.634   0.049   0.000   0.683
   14        0.634   0.049   0.000   0.683
   15        0.643   0.049   0.000   0.692
   16        0.643   0.049   0.000   0.692
   17        0.643   0.047   0.000   0.690
   18        0.643   0.047   0.000   0.690
   19        0.873   1.762   0.000   2.635
   20        0.873   1.762   0.000   2.635
   21        0.862   1.749   0.000   2.611
   22        0.862   1.749   0.000   2.611
   23        0.875   1.766   0.000   2.641
   24        0.875   1.766   0.000   2.641
   25        0.874   1.779   0.000   2.653
   26        0.874   1.779   0.000   2.653
   27        0.860   1.755   0.000   2.616
   28        0.860   1.755   0.000   2.616
   29        0.862   1.752   0.000   2.614
   30        0.862   1.752   0.000   2.614
   31        0.872   1.755   0.000   2.627
   32        0.872   1.755   0.000   2.627
   33        0.874   1.781   0.000   2.655
   34        0.874   1.781   0.000   2.655
   35        0.860   1.758   0.000   2.618
   36        0.860   1.758   0.000   2.618
   37        0.874   1.780   0.000   2.654
   38        0.874   1.780   0.000   2.654
   39        0.875   1.783   0.000   2.658
   40        0.875   1.783   0.000   2.658
   41        0.875   1.763   0.000   2.638
   42        0.875   1.763   0.000   2.638
   43        1.250   2.640   0.000   3.890
   44        1.250   2.640   0.000   3.890
   45        1.262   2.652   0.000   3.914
   46        1.262   2.652   0.000   3.914
   47        1.253   2.649   0.000   3.902
   48        1.253   2.649   0.000   3.902
   49        1.282   2.546   0.000   3.828
   50        1.282   2.546   0.000   3.828
   51        1.283   2.747   0.000   4.030
   52        1.283   2.747   0.000   4.030
   53        1.312   2.497   0.000   3.809
   54        1.312   2.497   0.000   3.809
   55        1.274   2.560   0.000   3.834
   56        1.274   2.560   0.000   3.834
   57        1.282   2.747   0.000   4.028
   58        1.282   2.747   0.000   4.028
   59        1.304   2.510   0.000   3.815
   60        1.304   2.510   0.000   3.815
tot         54.764  90.715  19.260 164.739