 vasp.5.4.4.18Apr17-6-g9f103f2a35 (build Mar 06 2019 16:23:31) complex

 executed on             LinuxIFC date 2019.12.30  16:42:27

 INCAR:
 POTCAR:    PAW_PBE Li 17Jan2003
 POTCAR:    PAW_PBE H 15Jun2001
 POTCAR:    PAW_PBE C 08Apr2002
 POTCAR:    PAW_PBE O 08Apr2002

 POTCAR:    PAW_PBE Li 17Jan2003
   VRHFIN =Li: s1p0

   TITEL  = PAW_PBE Li 17Jan2003
   POMASS =    7.010; ZVAL   =    1.000    mass and valenz
   ENMAX  =  140.000; ENMIN  =  100.000 eV

 POTCAR:    PAW_PBE H 15Jun2001
   VRHFIN =H: ultrasoft test

   TITEL  = PAW_PBE H 15Jun2001
   POMASS =    1.000; ZVAL   =    1.000    mass and valenz
   ENMAX  =  250.000; ENMIN  =  200.000 eV

 POTCAR:    PAW_PBE C 08Apr2002
   VRHFIN =C: s2p2

   TITEL  = PAW_PBE C 08Apr2002
   POMASS =   12.011; ZVAL   =    4.000    mass and valenz
   ENMAX  =  400.000; ENMIN  =  300.000 eV

 POTCAR:    PAW_PBE O 08Apr2002
   VRHFIN =O: s2p4

   TITEL  = PAW_PBE O 08Apr2002
   POMASS =   16.000; ZVAL   =    6.000    mass and valenz
   ENMAX  =  400.000; ENMIN  =  300.000 eV

  PAW_PBE Li 17Jan2003                  :
  PAW_PBE H 15Jun2001                   :
  PAW_PBE C 08Apr2002                   :
  PAW_PBE O 08Apr2002                   :

 POSCAR: Li  H  C  O
  positions in cartesian coordinates
 exchange correlation table for  LEXCH =        8
   RHO(1)=    0.500       N(1)  =     2000
   RHO(2)=  100.500       N(2)  =     4000

 VTST: version 3.2, (02/03/18)

 CHAIN: initializing optimizer

 OPT: Using VASP Dynamics algorithm
 CHAIN: Read ICHAIN            0

 POSCAR: Li  H  C  O
  positions in cartesian coordinates

 ion  position               nearest neighbor table
   1  0.839  0.130  0.263-  28 1.92  32 1.92  21 1.94  27 1.97   2 3.03   2 3.03
   2  0.339  0.870  0.237-  27 1.92  31 1.92  22 1.94  28 1.97   1 3.03   1 3.03
   3  0.161  0.870  0.737-  26 1.92  30 1.92  23 1.94  25 1.97   4 3.02   4 3.03
   4  0.661  0.130  0.763-  25 1.92  29 1.92  24 1.94  26 1.97   3 3.02   3 3.03
   5  0.658  0.307  0.044-  21 1.01
   6  0.158  0.693  0.456-  22 1.01
   7  0.342  0.693  0.956-  23 1.01
   8  0.842  0.307  0.544-  24 1.01
   9  0.186  0.454  0.131-  17 1.10
  10  0.686  0.546  0.370-  18 1.10
  11  0.814  0.546  0.870-  19 1.10
  12  0.314  0.454  0.631-  20 1.10
  13  0.169  0.244  0.927-  29 1.27  25 1.27  17 1.54
  14  0.669  0.756  0.573-  26 1.27  30 1.27  18 1.54
  15  0.831  0.756  0.073-  27 1.27  31 1.27  19 1.54
  16  0.331  0.244  0.427-  28 1.27  32 1.27  20 1.54
  17  0.039  0.406  0.042-   9 1.10  21 1.42  13 1.54  19 1.55
  18  0.538  0.594  0.458-  10 1.10  22 1.42  14 1.54  20 1.55
  19  0.962  0.594  0.958-  11 1.10  23 1.42  15 1.54  17 1.55
  20  0.461  0.406  0.542-  12 1.10  24 1.42  16 1.54  18 1.55
  21  0.813  0.330  0.116-   5 1.01  17 1.42   1 1.94
  22  0.313  0.670  0.384-   6 1.01  18 1.42   2 1.94
  23  0.187  0.670  0.884-   7 1.01  19 1.42   3 1.94
  24  0.687  0.330  0.616-   8 1.01  20 1.42   4 1.94
  25  0.019  0.128  0.840-  13 1.27   4 1.92   3 1.97
  26  0.519  0.872  0.660-  14 1.27   3 1.92   4 1.97
  27  0.981  0.872  0.160-  15 1.27   2 1.92   1 1.97
  28  0.481  0.128  0.340-  16 1.27   1 1.92   2 1.97
  29  0.423  0.237  0.922-  13 1.27   4 1.92
  30  0.923  0.763  0.579-  14 1.27   3 1.92
  31  0.577  0.763  0.079-  15 1.27   2 1.92
  32  0.077  0.237  0.422-  16 1.27   1 1.92

IMPORTANT INFORMATION: All symmetrisations will be switched off!
NOSYMM: (Re-)initialisation of all symmetry stuff for point group C_1.

 KPOINTS: KPOINTS created by Atomic Simulation Env

Automatic generation of k-mesh.
Space group operators:
 irot       det(A)        alpha          n_x          n_y          n_z        tau_x        tau_y        tau_z
    1     1.000000     0.000001     1.000000     0.000000     0.000000     0.000000     0.000000     0.000000

 Subroutine IBZKPT returns following result:

 Found     14 irreducible k-points:

 Following reciprocal coordinates:
            Coordinates               Weight
  0.000000  0.000000  0.000000      1.000000
  0.250000  0.000000  0.000000      2.000000
  0.500000  0.000000  0.000000      1.000000
  0.000000  0.333333  0.000000      2.000000
  0.250000  0.333333  0.000000      2.000000
  0.500000  0.333333  0.000000      2.000000
 -0.250000  0.333333  0.000000      2.000000
  0.000000  0.000000  0.500000      1.000000
  0.250000  0.000000  0.500000      2.000000
  0.500000  0.000000  0.500000      1.000000
  0.000000  0.333333  0.500000      2.000000
  0.250000  0.333333  0.500000      2.000000
  0.500000  0.333333  0.500000      2.000000
 -0.250000  0.333333  0.500000      2.000000

 Following cartesian coordinates:
            Coordinates               Weight
  0.000000  0.000000  0.000000      1.000000
  0.049948 -0.000001  0.000000      2.000000
  0.099895 -0.000003  0.000000      1.000000
 -0.000002  0.051057 -0.000061      2.000000
  0.049946  0.051055 -0.000060      2.000000
  0.099894  0.051054 -0.000060      2.000000
 -0.049949  0.051058 -0.000061      2.000000
 -0.000000  0.005861  0.056427      1.000000
  0.049947  0.005860  0.056427      2.000000
  0.099895  0.005858  0.056427      1.000000
 -0.000002  0.056918  0.056366      2.000000
  0.049946  0.056917  0.056366      2.000000
  0.099894  0.056915  0.056366      2.000000
 -0.049950  0.056919  0.056366      2.000000

 SYSTEM =  unknown system
 POSCAR =  Li  H  C  O

 Startparameter for this run:
   NWRITE =      2    write-flag & timer
   PREC   = accura    normal or accurate (medium, high low for compatibility)
   ISTART =      1    job   : 0-new  1-cont  2-samecut
   ICHARG =      0    charge: 1-file 2-atom 10-const
   ISPIN  =      1    spin polarized calculation?
   LNONCOLLINEAR =      F non collinear calculations
   LSORBIT =      F    spin-orbit coupling
   INIWAV =      1    electr: 0-lowe 1-rand  2-diag
   LASPH  =      F    aspherical Exc in radial PAW
   METAGGA=      F    non-selfconsistent MetaGGA calc.

 Electronic Relaxation 1
   ENCUT  =  520.0 eV  38.22 Ry    6.18 a.u.   9.31 12.20 16.47*2*pi/ulx,y,z
   ENINI  =  520.0     initial cutoff
   ENAUG  =  644.9 eV  augmentation charge cutoff
   NELM   =    150;   NELMIN=  2; NELMDL=  0     # of ELM steps
   EDIFF  = 0.1E-05   stopping-criterion for ELM
   LREAL  =      F    real-space projection
   NLSPLINE    = F    spline interpolate recip. space projectors
   LCOMPAT=      F    compatible to vasp.4.4
   GGA_COMPAT  = T    GGA compatible to vasp.4.4-vasp.4.6
   LMAXPAW     = -100 max onsite density
   LMAXMIX     =    2 max onsite mixed and CHGCAR
   VOSKOWN=      0    Vosko Wilk Nusair interpolation
   ROPT   =    0.00000   0.00000   0.00000   0.00000
 Ionic relaxation
   EDIFFG = 0.1E-04   stopping-criterion for IOM
   NSW    =      0    number of steps for IOM
   NBLOCK =      1;   KBLOCK =      1    inner block; outer block
   IBRION =     -1    ionic relax: 0-MD 1-quasi-New 2-CG
   NFREE  =      0    steps in history (QN), initial steepest desc. (CG)
   ISIF   =      2    stress and relaxation
   IWAVPR =     10    prediction:  0-non 1-charg 2-wave 3-comb
   ISYM   =      0    0-nonsym 1-usesym 2-fastsym
   LCORR  =      T    Harris-Foulkes like correction to forces

   POTIM  = 0.5000    time-step for ionic-motion
   TEIN   =    0.0    initial temperature
   TEBEG  =    0.0;   TEEND  =   0.0 temperature during run
   SMASS  =  -3.00    Nose mass-parameter (am)
   estimated Nose-frequenzy (Omega)   =  0.10E-29 period in steps =****** mass=  -0.573E-27a.u.
   SCALEE = 1.0000    scale energy and forces
   NPACO  =    256;   APACO  = 16.0  distance and # of slots for P.C.
   PSTRESS=    0.0 pullay stress

  Mass of Ions in am
   POMASS =   7.01  1.00 12.01 16.00
  Ionic Valenz
   ZVAL   =   1.00  1.00  4.00  6.00
  Atomic Wigner-Seitz radii
  virtual crystal weights
   VCA    =   1.00  1.00  1.00  1.00
   NELECT =     116.0000    total number of electrons
   NUPDOWN=      -1.0000    fix difference up-down

 DOS related values:
   EMIN   =  10.00;   EMAX   =-10.00  energy-range for DOS
   EFERMI =   0.00
   ISMEAR =     0;   SIGMA  =   0.01  broadening in eV -4-tet -1-fermi 0-gaus

 Electronic relaxation 2 (details)
   IALGO  =     68    algorithm
   LDIAG  =      T    sub-space diagonalisation (order eigenvalues)
   LSUBROT=      F    optimize rotation matrix (better conditioning)
   TURBO    =      0    0=normal 1=particle mesh
   IRESTART =      0    0=no restart 2=restart with 2 vectors
   NREBOOT  =      0    no. of reboots
   NMIN     =      0    reboot dimension
   EREF     =   0.00    reference energy to select bands
   IMIX   =      4    mixing-type and parameters
     AMIX     =   0.40;   BMIX     =  1.00
     AMIX_MAG =   1.60;   BMIX_MAG =  1.00
     AMIN     =   0.10
     WC   =   100.;   INIMIX=   1;  MIXPRE=   1;  MAXMIX= -45

 Intra band minimization:
   WEIMIN = 0.0000     energy-eigenvalue tresh-hold
   EBREAK =  0.33E-08  absolut break condition
   DEPER  =   0.30     relativ break condition

   TIME   =   0.40     timestep for ELM

  volume/ion in A,a.u.               =       9.05        61.06
  Fermi-wavevector in a.u.,A,eV,Ry     =   1.206886  2.280685 19.817905  1.456575
  Thomas-Fermi vector in A             =   2.342540

 Write flags
   LWAVE        =      T    write WAVECAR
   LDOWNSAMPLE  =      F    k-point downsampling of WAVECAR
   LCHARG       =      T    write CHGCAR
   LVTOT        =      F    write LOCPOT, total local potential
   LVHAR        =      F    write LOCPOT, Hartree potential only
   LELF         =      F    write electronic localiz. function (ELF)
   LORBIT       =     11    0 simple, 1 ext, 2 COOP (PROOUT), +10 PAW based schemes

 Dipole corrections
   LMONO  =      F    monopole corrections only (constant potential shift)
   LDIPOL =      F    correct potential (dipole corrections)
   IDIPOL =      0    1-x, 2-y, 3-z, 4-all directions
   EPSILON=  1.0000000 bulk dielectric constant

 Exchange correlation treatment:
   GGA     =    PE    GGA type
   VOSKOWN=      0    Vosko Wilk Nusair interpolation
   LHFCALC =     F    Hartree Fock is set to
   LHFONE  =     F    Hartree Fock one center treatment
   AEXX    =    0.0000 exact exchange contribution

 Linear response parameters
   LEPSILON=     F    determine dielectric tensor
   LRPA    =     F    only Hartree local field effects (RPA)
   LNABLA  =     F    use nabla operator in PAW spheres
   LVEL    =     F    velocity operator in full k-point grid
   LINTERFAST=   F  fast interpolation
   KINTER  =     0    interpolate to denser k-point grid
   CSHIFT  =0.1000    complex shift for real part using Kramers Kronig
   OMEGAMAX=  -1.0    maximum frequency
   DEG_THRESHOLD= 0.2000000E-02 threshold for treating states as degnerate
   RTIME   =   -0.100 relaxation time in fs
  (WPLASMAI=    0.000 imaginary part of plasma frequency in eV, 0.658/RTIME)
   DFIELD  = 0.0000000 0.0000000 0.0000000 field for delta impulse in time

 Orbital magnetization related:
   ORBITALMAG=     F  switch on orbital magnetization
   LCHIMAG   =     F  perturbation theory with respect to B field
   DQ        =  0.001000  dq finite difference perturbation B field
   LLRAUG    =     F  two centre corrections for induced B field

 Static calculation
[...]
     46      -1.9020      2.00000
     47      -1.5636      2.00000
     48      -1.4437      2.00000
     49      -1.3265      2.00000
     50      -1.2592      2.00000
     51      -0.9834      2.00000
     52      -0.8839      2.00000
     53      -0.7920      2.00000
     54      -0.7712      2.00000
     55      -0.7223      2.00000
     56      -0.6025      2.00000
     57      -0.0546      2.00000
     58       0.0449      2.00000
     59       3.9445      0.00000
     60       4.3421      0.00000
     61       5.2348      0.00000
     62       5.3255      0.00000
     63       6.2752      0.00000
     64       6.8015      0.00000
     65       7.6122      0.00000
     66       8.0012      0.00000
     67       8.8056      0.00000
     68       9.0336      0.00000
     69       9.0637      0.00000
     70       9.2024      0.00000
     71       9.5077      0.00000
     72       9.5337      0.00000
     73       9.6234      0.00000
     74       9.8871      0.00000
     75      10.0200      0.00000
     76      10.2982      0.00000

[...]

 k-point    14 :      -0.2500    0.3333    0.5000
  band No.  band energies     occupation
      1     -21.1266      2.00000
      2     -21.1134      2.00000
      3     -21.0005      2.00000
      4     -20.9850      2.00000
      5     -19.9763      2.00000
      6     -19.9679      2.00000
      7     -19.7976      2.00000
      8     -19.7869      2.00000
      9     -18.6295      2.00000
     10     -18.6217      2.00000
     11     -18.6086      2.00000
     12     -18.6027      2.00000
     13     -12.9871      2.00000
     14     -12.9815      2.00000
     15     -10.8838      2.00000
     16     -10.8694      2.00000
     17      -8.6882      2.00000
     18      -8.6437      2.00000
     19      -7.9173      2.00000
     20      -7.8497      2.00000
     21      -7.3709      2.00000
     22      -7.3464      2.00000
     23      -6.5508      2.00000
     24      -6.4961      2.00000
     25      -6.3282      2.00000
     26      -6.2843      2.00000
     27      -5.9106      2.00000
     28      -5.8428      2.00000
     29      -5.7011      2.00000
     30      -5.6557      2.00000
     31      -5.1029      2.00000
     32      -5.0842      2.00000
     33      -4.8051      2.00000
     34      -4.7066      2.00000
     35      -4.4187      2.00000
     36      -4.3283      2.00000
     37      -4.1884      2.00000
     38      -4.1634      2.00000
     39      -3.6575      2.00000
     40      -3.6000      2.00000
     41      -2.5057      2.00000
     42      -2.4594      2.00000
     43      -2.2617      2.00000
     44      -2.2249      2.00000
     45      -1.8245      2.00000
     46      -1.7772      2.00000
     47      -1.4697      2.00000
     48      -1.3835      2.00000
     49      -1.3631      2.00000
     50      -1.2913      2.00000
     51      -0.9716      2.00000
     52      -0.9413      2.00000
     53      -0.8622      2.00000
     54      -0.7939      2.00000
     55      -0.7290      2.00000
     56      -0.6922      2.00000
     57      -0.2341      2.00000
     58      -0.1283      2.00000
     59       4.3269      0.00000
     60       4.4476      0.00000
     61       5.0850      0.00000
     62       5.2090      0.00000
     63       6.7190      0.00000
     64       7.0082      0.00000
     65       7.4358      0.00000
     66       7.9661      0.00000
     67       8.4102      0.00000
     68       8.6648      0.00000
     69       8.8837      0.00000
     70       9.0667      0.00000
     71       9.2024      0.00000
     72       9.4252      0.00000
     73       9.6975      0.00000
     74      10.0522      0.00000
     75      10.3097      0.00000
     76      10.5043      0.00000

 soft charge-density along one line, spin component           1
         0         1         2         3         4         5         6         7         8         9
 total charge-density along one line

------------------------ aborting loop because EDIFF is reached ----------------------------------------

 total charge

# of ion       s       p       d       tot
    1        0.105   0.219   0.000   0.324
    2        0.105   0.219   0.000   0.324
    3        0.105   0.219   0.000   0.324
    4        0.105   0.219   0.000   0.324
    5        0.565   0.121   0.000   0.685
    6        0.564   0.120   0.000   0.685
    7        0.564   0.120   0.000   0.685
    8        0.564   0.120   0.000   0.685
    9        0.647   0.045   0.000   0.693
   10        0.647   0.045   0.000   0.693
   11        0.647   0.045   0.000   0.693
   12        0.647   0.045   0.000   0.693
   13        0.868   1.693   0.000   2.561
   14        0.868   1.692   0.000   2.560
   15        0.868   1.692   0.000   2.560
   16        0.868   1.692   0.000   2.561
   17        0.834   1.704   0.000   2.538
   18        0.834   1.704   0.000   2.538
   19        0.834   1.704   0.000   2.538
   20        0.834   1.704   0.000   2.537
   21        1.553   3.625   0.000   5.178
   22        1.553   3.625   0.000   5.178
   23        1.553   3.625   0.000   5.178
   24        1.553   3.625   0.000   5.178
   25        1.567   3.606   0.000   5.173
   26        1.568   3.605   0.000   5.173
   27        1.568   3.605   0.000   5.173
   28        1.568   3.606   0.000   5.173
   29        1.570   3.596   0.000   5.166
   30        1.570   3.596   0.000   5.165
   31        1.570   3.596   0.000   5.165
   32        1.570   3.596   0.000   5.166
tot         30.835  58.431   0.000  89.266

         DFTD3 V3.0 Rev 1
 IVDW         = 12
 DF pbe
 parameters
 VDW_S6       =    1.0000
 VDW_S8       =    0.7875
 VDW_A1       =    0.4289
 VDW_A2       =    4.4407
 k1-k3        =   16.0000    1.3333   -4.0000
 VDW_RADIUS   =   50.2022 A
 VDW_CNRADIUS =   21.1671 A
 Edisp (eV)   -2.81056

 E6    (eV) :    -2.0117
 E8    (eV) :    -0.7988
 % E8        : 28.42

  FORCE on cell =-STRESS in cart. coord.  units (eV):
  Direction    XX          YY          ZZ          XY          YZ          ZX
  Alpha Z   189.17928   189.17928   189.17928
  Ewald    -118.33636 -1638.74309 -1953.71367    -0.01322   591.12100     0.03459
  Hartree  1363.29090   828.02971   530.12340    -0.00237   270.99804     0.02254
  E(xc)    -513.29001  -519.07075  -518.51666     0.00003     2.25814    -0.00016
  Local   -2713.91407  -859.65151  -198.91362     0.01425  -849.65862    -0.05763
  n-local  -340.77349  -336.31415  -335.04709     0.00279   -12.22973     0.00202
  augment    72.84694    83.64375    80.03179    -0.00067     1.92691    -0.00056
  Kinetic  2063.18296  2255.21839  2209.36976    -0.01944    -5.02043    -0.00864
  Fock        0.00000     0.00000     0.00000     0.00000     0.00000     0.00000
  vdW        -2.15504    -2.25454    -2.52329     0.00021     0.52543     0.00031
  Total       0.03111     0.03708    -0.01011    -0.01842    -0.07926    -0.00753
  in kB       0.17217     0.20518    -0.05595    -0.10195    -0.43864    -0.04168

 VOLUME and BASIS-vectors are now :
  energy-cutoff  :      520.00
  volume of cell :      289.52
      direct lattice vectors                 reciprocal lattice vectors
     5.005236380  0.000158146  0.000003980     0.199790764 -0.000005531  0.000000453
     0.000182246  6.527885149 -0.678075513    -0.000004839  0.153170091 -0.000181746
    -0.000019796  0.010512922  8.859977712    -0.000000460  0.011722477  0.112853192

  length of vectors
     5.005236382  6.563007767  8.859983949     0.199790764  0.153170199  0.113460387

 FORCES acting on ions
    electron-ion (+dipol)            ewald-force                    non-local-force                 convergence-correction
   -.586E+00 0.606E+01 -.581E+00   0.647E+00 -.584E+01 0.626E+00   -.426E-01 -.269E+00 -.355E-01   -.186E-05 -.759E-05 -.176E-04
   -.577E+00 -.605E+01 0.569E+00   0.639E+00 0.583E+01 -.615E+00   -.456E-01 0.266E+00 0.378E-01   0.170E-05 0.387E-05 -.160E-04
   0.556E+00 -.605E+01 0.562E+00   -.618E+00 0.583E+01 -.608E+00   0.493E-01 0.266E+00 0.381E-01   -.204E-06 0.916E-05 0.148E-04
   0.609E+00 0.606E+01 -.590E+00   -.668E+00 -.584E+01 0.634E+00   0.383E-01 -.270E+00 -.349E-01   0.399E-06 -.506E-05 0.191E-04
   0.513E+02 0.135E+02 0.233E+02   -.570E+02 -.147E+02 -.275E+02   0.568E+01 0.114E+01 0.422E+01   -.343E-05 -.134E-04 0.364E-05
   0.513E+02 -.135E+02 -.232E+02   -.569E+02 0.147E+02 0.274E+02   0.568E+01 -.114E+01 -.421E+01   -.678E-05 0.844E-05 -.174E-04
   -.512E+02 -.135E+02 -.232E+02   0.569E+02 0.147E+02 0.274E+02   -.568E+01 -.114E+01 -.421E+01   0.702E-05 0.161E-04 0.345E-04
   -.513E+02 0.135E+02 0.233E+02   0.569E+02 -.147E+02 -.275E+02   -.568E+01 0.114E+01 0.421E+01   0.318E-05 -.121E-04 -.109E-04
   -.376E+02 -.109E+02 -.425E+02   0.414E+02 0.125E+02 0.465E+02   -.389E+01 -.166E+01 -.403E+01   -.407E-05 -.513E-06 -.999E-05
   -.376E+02 0.109E+02 0.425E+02   0.415E+02 -.126E+02 -.465E+02   -.390E+01 0.166E+01 0.403E+01   -.304E-05 0.532E-06 -.265E-04
   0.376E+02 0.109E+02 0.425E+02   -.415E+02 -.126E+02 -.465E+02   0.390E+01 0.166E+01 0.403E+01   -.613E-05 0.449E-05 0.319E-04
   0.376E+02 -.109E+02 -.425E+02   -.414E+02 0.125E+02 0.465E+02   0.389E+01 -.166E+01 -.403E+01   0.457E-05 -.185E-05 -.179E-05
   0.101E+02 -.113E+02 -.355E+02   -.129E+02 0.153E+02 0.392E+02   0.276E+01 -.412E+01 -.383E+01   -.829E-05 -.895E-04 0.948E-04
   0.981E+01 0.114E+02 0.356E+02   -.126E+02 -.154E+02 -.394E+02   0.275E+01 0.413E+01 0.384E+01   0.241E-04 0.622E-04 0.808E-05
   -.984E+01 0.113E+02 0.356E+02   0.126E+02 -.153E+02 -.394E+02   -.275E+01 0.412E+01 0.384E+01   -.241E-04 0.419E-04 0.209E-04
   -.101E+02 -.113E+02 -.355E+02   0.128E+02 0.154E+02 0.393E+02   -.276E+01 -.412E+01 -.383E+01   0.101E-04 -.523E-04 -.128E-03
   -.586E+02 -.911E+01 -.411E+02   0.639E+02 0.112E+02 0.393E+02   -.537E+01 -.211E+01 0.171E+01   -.221E-04 0.133E-04 0.392E-04
   -.587E+02 0.908E+01 0.411E+02   0.640E+02 -.112E+02 -.394E+02   -.536E+01 0.211E+01 -.171E+01   -.306E-05 -.144E-04 -.790E-04
   0.586E+02 0.909E+01 0.411E+02   -.640E+02 -.112E+02 -.394E+02   0.536E+01 0.210E+01 -.171E+01   -.110E-04 0.327E-04 0.150E-03
   0.586E+02 -.909E+01 -.411E+02   -.640E+02 0.112E+02 0.393E+02   0.537E+01 -.211E+01 0.171E+01   -.211E-04 0.657E-05 -.573E-04
   0.784E+02 0.579E+02 -.139E+03   -.828E+02 -.626E+02 0.175E+03   0.442E+01 0.475E+01 -.366E+02   -.630E-04 -.659E-04 -.915E-04
   0.783E+02 -.578E+02 0.139E+03   -.828E+02 0.626E+02 -.175E+03   0.446E+01 -.473E+01 0.366E+02   0.167E-04 0.462E-04 -.165E-03
   -.784E+02 -.578E+02 0.139E+03   0.828E+02 0.626E+02 -.175E+03   -.446E+01 -.474E+01 0.366E+02   -.281E-04 0.784E-04 0.266E-03
   -.783E+02 0.579E+02 -.139E+03   0.828E+02 -.626E+02 0.175E+03   -.443E+01 0.475E+01 -.366E+02   -.148E-04 -.595E-04 0.811E-04
   0.103E+03 0.137E+03 0.124E+03   -.128E+03 -.161E+03 -.146E+03   0.246E+02 0.246E+02 0.218E+02   -.572E-04 -.102E-03 0.200E-03
   0.103E+03 -.137E+03 -.124E+03   -.128E+03 0.162E+03 0.146E+03   0.247E+02 -.246E+02 -.218E+02   0.564E-04 0.149E-03 0.183E-03
   -.103E+03 -.137E+03 -.124E+03   0.128E+03 0.161E+03 0.146E+03   -.246E+02 -.246E+02 -.218E+02   -.194E-04 0.314E-04 -.727E-04
   -.103E+03 0.137E+03 0.124E+03   0.128E+03 -.162E+03 -.146E+03   -.246E+02 0.246E+02 0.218E+02   0.670E-04 -.140E-03 -.237E-03
   -.170E+03 0.461E+02 0.135E+02   0.210E+03 -.476E+02 -.149E+02   -.406E+02 0.146E+01 0.137E+01   0.522E-04 -.137E-03 0.229E-03
   -.169E+03 -.462E+02 -.136E+02   0.210E+03 0.477E+02 0.150E+02   -.406E+02 -.150E+01 -.142E+01   -.420E-04 0.744E-04 -.412E-04
   0.169E+03 -.462E+02 -.136E+02   -.210E+03 0.476E+02 0.150E+02   0.406E+02 -.149E+01 -.142E+01   0.209E-04 0.111E-03 0.195E-04
   0.170E+03 0.461E+02 0.135E+02   -.210E+03 -.476E+02 -.149E+02   0.406E+02 0.146E+01 0.139E+01   0.286E-04 -.124E-03 -.252E-03
   0.158E-01 -.596E-02 0.553E-01   0.284E-13 0.853E-13 0.782E-13   -.158E-01 0.628E-02 -.554E-01   -.467E-04 -.136E-03 0.172E-03

 POSITION                                       TOTAL-FORCE (eV/Angst)
      4.19732      0.85241      2.23870         0.008594     -0.011080      0.009382
      1.69505      5.68120      1.51320         0.006302      0.008384     -0.008040
      0.80761      5.68640      5.94311        -0.003687      0.008482     -0.007884
      3.31090      0.85759      6.66865        -0.011525     -0.011073      0.009212
      3.29319      2.00410      0.18241        -0.003841      0.006538      0.009334
      0.78957      4.52935      3.56925         0.003171     -0.008315     -0.004812
      1.71325      4.53479      7.99929        -0.005429     -0.009192     -0.007191
      4.21505      2.00942      4.61251        -0.000064      0.007308      0.009253
      0.92887      2.96284      0.84907        -0.009921     -0.005356     -0.016836
      3.43184      3.57048      2.90339        -0.012435      0.001323      0.006331
      4.07627      3.57562      7.33350         0.010488      0.003873      0.004795
      1.57364      2.96797      5.27921         0.010715     -0.002424     -0.015379
      0.84629      1.60299      8.04561        -0.007240     -0.010320      0.013238
      3.34964      4.94055      4.56594        -0.009091      0.016976     -0.007911
      4.15878      4.93540      0.13588        -0.000224      0.018656     -0.002304
      1.65616      1.59770      3.61572         0.007210     -0.002558      0.018156
      0.19297      2.64816      0.09349        -0.005054      0.012827      0.004843
      2.69531      3.88517      3.65810         0.003695     -0.015387      0.009698
      4.81269      3.89060      8.08812         0.001234     -0.017026      0.007033
      2.30970      2.65364      4.52371         0.004715      0.005910     -0.002805
      4.07043      2.15565      0.80368        -0.006906     -0.000776      0.010893
      1.56728      4.37735      2.94837        -0.002392      0.006429     -0.019581
      0.93544      4.38276      7.37838         0.006114      0.004999     -0.017551
      3.43761      2.16101      5.23371         0.007413     -0.001902      0.012156
      0.09627      0.84292      7.35749         0.001546     -0.001458      0.009030
      2.59873      5.70001      5.25367         0.008676      0.009951     -0.002835
      4.90935      5.69489      0.82406        -0.008896      0.006090     -0.007711
      2.40638      0.83792      2.92778         0.001157     -0.007697      0.003974
      2.11494      1.55645      8.00417         0.026675     -0.005885     -0.003292
      4.61866      4.98795      4.60827        -0.003635     -0.002723     -0.007368
      2.88969      4.98253      0.17806         0.003733     -0.000209     -0.005578
      0.38743      1.55102      3.57402        -0.021099     -0.004369     -0.000252
    total drift:                                0.000030      0.000179      0.000138

  FREE ENERGIE OF THE ION-ELECTRON SYSTEM (eV)
  free  energy   TOTEN  =      -206.18889780 eV

  energy  without entropy=     -206.18889780  energy(sigma->0) =     -206.18889780

 stress matrix after NEB project (eV)
      0.03111     -0.01842     -0.00753
     -0.01842      0.03708     -0.07926
     -0.00753     -0.07926     -0.01011
  FORCES: max atom, RMS     0.027514    0.015930
  FORCE total and by dimension    0.090112    0.026675
  Stress total and by dimension    0.125709    0.079264
 writing wavefunctions

 total charge

# of ion       s       p       d       tot
    1        0.105   0.219   0.000   0.324
    2        0.105   0.219   0.000   0.324
    3        0.105   0.219   0.000   0.324
    4        0.105   0.219   0.000   0.324
    5        0.565   0.121   0.000   0.685
    6        0.564   0.120   0.000   0.685
    7        0.564   0.120   0.000   0.685
    8        0.564   0.120   0.000   0.685
    9        0.647   0.045   0.000   0.693
   10        0.647   0.045   0.000   0.693
   11        0.647   0.045   0.000   0.693
   12        0.647   0.045   0.000   0.693
   13        0.868   1.693   0.000   2.561
   14        0.868   1.692   0.000   2.560
   15        0.868   1.692   0.000   2.560
   16        0.868   1.692   0.000   2.561
   17        0.834   1.704   0.000   2.538
   18        0.834   1.704   0.000   2.538
   19        0.834   1.704   0.000   2.538
   20        0.834   1.704   0.000   2.537
   21        1.553   3.625   0.000   5.178
   22        1.553   3.625   0.000   5.178
   23        1.553   3.625   0.000   5.178
   24        1.553   3.625   0.000   5.178
   25        1.567   3.606   0.000   5.173
   26        1.568   3.605   0.000   5.173
   27        1.568   3.605   0.000   5.173
   28        1.568   3.606   0.000   5.173
   29        1.570   3.596   0.000   5.166
   30        1.570   3.596   0.000   5.165
   31        1.570   3.596   0.000   5.165
   32        1.570   3.596   0.000   5.166
tot         30.835  58.431   0.000  89.266